p td 16 48
2 1
3 1
3 2
4 1
4 2
5 4
6 3
6 5
7 4
8 7
8 3
10 5
10 7
10 9
11 6
11 10
11 4
12 9
12 6
12 11
12 5
13 4
13 6
13 2
13 8
13 10
13 3
14 6
14 4
14 1
14 10
14 12
15 13
15 11
15 8
15 1
15 14
15 4
15 3
16 12
16 2
16 10
16 11
16 14
16 1
16 4
16 9
16 7
